
Gurobi 6.5.2 (linux64) logging started Mon Aug 29 10:57:53 2016

Optimize a model with 101 rows, 663 columns and 1327 nonzeros
Coefficient statistics:
  Matrix range    [1e+00, 2e+00]
  Objective range [3e+00, 1e+02]
  Bounds range    [1e+00, 1e+00]
  RHS range       [1e+00, 1e+00]
Found heuristic solution: objective 3055
Presolve removed 51 rows and 50 columns
Presolve time: 0.00s
Presolved: 50 rows, 613 columns, 1226 nonzeros
Variable types: 0 continuous, 613 integer (613 binary)

Root relaxation: objective 8.075000e+02, 69 iterations, 0.00 seconds

    Nodes    |    Current Node    |     Objective Bounds      |     Work
 Expl Unexpl |  Obj  Depth IntInf | Incumbent    BestBd   Gap | It/Node Time

     0     0  807.50000    0    6 3055.00000  807.50000  73.6%     -    0s
H    0     0                     812.0000000  807.50000  0.55%     -    0s
H    0     0                     809.0000000  807.50000  0.19%     -    0s
H    0     0                     808.0000000  807.50000  0.06%     -    0s

Explored 0 nodes (73 simplex iterations) in 0.01 seconds
Thread count was 8 (of 8 available processors)

Optimal solution found (tolerance 1.00e-04)
Best objective 8.080000000000e+02, best bound 8.080000000000e+02, gap 0.0%
